(set-info :smt-lib-version 2.6)
(set-logic QF_S)
(set-info :source |
Generated by: Oliver Markgraf, Hongjian Jiang, Daniel Stan, Anthony W. Lin, Philipp Ruemmer
Generated on: 2025-04-08
Application: Using String Solvers to solve RMC problems encoded as CHC over Strings
Target solver: cvc5, OSTRICH, Z3, Z3alpha, Z3-noodler
Time limit: 60.0
Benchmarks are extracted by running HornStr https://arg-git.informatik.uni-kl.de/pub/string-chc-lib on all benchmarks
provided in the repository and gathering the string queries sent to the string solvers.
|)
(set-info :license "https://creativecommons.org/licenses/by/4.0/")
(set-info :category "industrial")
(declare-fun varout () String)
(assert (let ((a!1 (re.* (re.union (re.union (str.to_re "c") (str.to_re "i"))
                           (str.to_re "r")))))
  (str.in_re varout a!1)))
(declare-fun varin () String)
(assert (let ((a!1 (re.* (re.union (re.union (str.to_re "c") (str.to_re "i"))
                           (str.to_re "r")))))
  (str.in_re varin a!1)))
(declare-fun X () String)
(declare-fun isin () Bool)
(declare-fun isout () Bool)
(assert (let ((a!1 (re.union (str.to_re "")
                     (re.++ (str.to_re "i") (re.* (str.to_re "i"))))))
(let ((a!2 (re.++ (re.++ (str.to_re "i") (str.to_re "i"))
                  (re.++ (re.* (str.to_re "i")) a!1))))
  (or (and (str.in_re X a!2) (not isin) (= X varout) isout)))))
(push 1)
(assert (str.in_re varout re.none))
(set-info :status unknown)
(check-sat)
(pop 1)
(push 1)
(assert (str.in_re varout re.none))
(set-info :status unknown)
(check-sat)
(pop 1)
(push 1)
(assert (let ((a!1 (re.++ (str.to_re "r")
                  (re.++ (re.* (str.to_re "r"))
                         (re.union (str.to_re "c") (str.to_re "i")))))
      (a!3 (re.++ (re.* (re.union (str.to_re "i") (str.to_re "r")))
                  (str.to_re "c")))
      (a!6 (re.* (re.union (re.union (str.to_re "c") (str.to_re "i"))
                           (str.to_re "r")))))
(let ((a!2 (re.++ (re.* (str.to_re "r"))
                  (re.union (re.union (str.to_re "c") (str.to_re "i")) a!1)))
      (a!4 (re.union (str.to_re "c")
                     (re.++ (re.union (str.to_re "i") (str.to_re "r")) a!3)))
      (a!7 (re.++ (re.union (re.union (str.to_re "c") (str.to_re "i"))
                            (str.to_re "r"))
                  a!6)))
(let ((a!5 (re.++ (re.* (re.union (str.to_re "i") (str.to_re "r"))) a!4)))
(let ((a!8 (re.++ (re.++ (re.++ a!2 a!5) a!5)
                  (re.++ a!6 (re.union (str.to_re "") a!7)))))
  (str.in_re varout a!8))))))
(set-info :status unknown)
(check-sat)
(pop 1)
(exit)
